p cnf 961 2467
51 -2 -1 0
-51 2 0
-51 1 0
52 -51 -3 0
-52 51 0
-52 3 0
53 -695 -696 0
-53 695 0
-53 696 0
54 -53 -697 0
-54 53 0
-54 697 0
55 -698 -699 0
-55 698 0
-55 699 0
56 -700 -701 0
-56 700 0
-56 701 0
57 -56 -702 0
-57 56 0
-57 702 0
58 -703 -55 0
-58 703 0
-58 55 0
59 -11 -10 0
-59 11 0
-59 10 0
60 -59 -12 0
-60 59 0
-60 12 0
61 -704 -58 0
-61 704 0
-61 58 0
62 -14 -13 0
-62 14 0
-62 13 0
63 -62 -11 0
-63 62 0
-63 11 0
64 -705 -61 0
-64 705 0
-64 61 0
65 -706 -15 0
-65 706 0
-65 15 0
66 -65 -707 0
-66 65 0
-66 707 0
67 -708 -64 0
-67 708 0
-67 64 0
68 -18 -1 0
-68 18 0
-68 1 0
69 -68 -9 0
-69 68 0
-69 9 0
70 -709 -67 0
-70 709 0
-70 67 0
71 -19 -710 0
-71 19 0
-71 710 0
72 -71 -8 0
-72 71 0
-72 8 0
73 -711 -70 0
-73 711 0
-73 70 0
74 -712 -1 0
-74 712 0
-74 1 0
75 -74 -20 0
-75 74 0
-75 20 0
76 -713 -73 0
-76 713 0
-76 73 0
77 -21 -714 0
-77 21 0
-77 714 0
78 -77 -22 0
-78 77 0
-78 22 0
79 -715 -76 0
-79 715 0
-79 76 0
80 -23 -714 0
-80 23 0
-80 714 0
81 -80 -24 0
-81 80 0
-81 24 0
82 -716 -79 0
-82 716 0
-82 79 0
83 -717 -25 0
-83 717 0
-83 25 0
84 -83 -27 0
-84 83 0
-84 27 0
85 -718 -82 0
-85 718 0
-85 82 0
86 -719 -720 0
-86 719 0
-86 720 0
87 -86 -8 0
-87 86 0
-87 8 0
88 -721 -85 0
-88 721 0
-88 85 0
89 -29 -5 0
-89 29 0
-89 5 0
90 -89 -12 0
-90 89 0
-90 12 0
91 -722 -88 0
-91 722 0
-91 88 0
92 -31 -30 0
-92 31 0
-92 30 0
93 -92 -32 0
-93 92 0
-93 32 0
94 -723 -91 0
-94 723 0
-94 91 0
95 -33 -706 0
-95 33 0
-95 706 0
96 -95 -724 0
-96 95 0
-96 724 0
97 -725 -94 0
-97 725 0
-97 94 0
98 -30 -14 0
-98 30 0
-98 14 0
99 -98 -34 0
-99 98 0
-99 34 0
100 -726 -97 0
-100 726 0
-100 97 0
101 -727 -714 0
-101 727 0
-101 714 0
102 -101 -728 0
-102 101 0
-102 728 0
103 -729 -100 0
-103 729 0
-103 100 0
104 -730 -11 0
-104 730 0
-104 11 0
105 -104 -700 0
-105 104 0
-105 700 0
106 -731 -103 0
-106 731 0
-106 103 0
107 -21 -706 0
-107 21 0
-107 706 0
108 -107 -701 0
-108 107 0
-108 701 0
109 -732 -106 0
-109 732 0
-109 106 0
110 -733 -734 0
-110 733 0
-110 734 0
111 -110 -36 0
-111 110 0
-111 36 0
112 -735 -109 0
-112 735 0
-112 109 0
113 -736 -737 0
-113 736 0
-113 737 0
114 -113 -717 0
-114 113 0
-114 717 0
115 -738 -112 0
-115 738 0
-115 112 0
116 -739 -28 0
-116 739 0
-116 28 0
117 -116 -728 0
-117 116 0
-117 728 0
118 -740 -115 0
-118 740 0
-118 115 0
119 -739 -717 0
-119 739 0
-119 717 0
120 -119 -33 0
-120 119 0
-120 33 0
121 -741 -118 0
-121 741 0
-121 118 0
122 -40 -742 0
-122 40 0
-122 742 0
123 -122 -41 0
-123 122 0
-123 41 0
124 -743 -121 0
-124 743 0
-124 121 0
125 -42 -18 0
-125 42 0
-125 18 0
126 -125 -34 0
-126 125 0
-126 34 0
127 -744 -124 0
-127 744 0
-127 124 0
128 -28 -745 0
-128 28 0
-128 745 0
129 -128 -31 0
-129 128 0
-129 31 0
130 -746 -127 0
-130 746 0
-130 127 0
131 -706 -714 0
-131 706 0
-131 714 0
132 -131 -27 0
-132 131 0
-132 27 0
133 -747 -130 0
-133 747 0
-133 130 0
134 -748 -1 0
-134 748 0
-134 1 0
135 -134 -706 0
-135 134 0
-135 706 0
136 -749 -133 0
-136 749 0
-136 133 0
137 -44 -750 0
-137 44 0
-137 750 0
138 -137 -9 0
-138 137 0
-138 9 0
139 -751 -136 0
-139 751 0
-139 136 0
140 -37 -701 0
-140 37 0
-140 701 0
141 -140 -45 0
-141 140 0
-141 45 0
142 -752 -139 0
-142 752 0
-142 139 0
143 -31 -753 0
-143 31 0
-143 753 0
144 -143 -40 0
-144 143 0
-144 40 0
145 -754 -142 0
-145 754 0
-145 142 0
146 -736 -714 0
-146 736 0
-146 714 0
147 -146 -755 0
-147 146 0
-147 755 0
148 -756 -145 0
-148 756 0
-148 145 0
149 -750 -19 0
-149 750 0
-149 19 0
150 -149 -702 0
-150 149 0
-150 702 0
151 -757 -148 0
-151 757 0
-151 148 0
152 -750 -17 0
-152 750 0
-152 17 0
153 -152 -696 0
-153 152 0
-153 696 0
154 -758 -151 0
-154 758 0
-154 151 0
155 -736 -759 0
-155 736 0
-155 759 0
156 -155 -27 0
-156 155 0
-156 27 0
157 -760 -154 0
-157 760 0
-157 154 0
158 -761 -30 0
-158 761 0
-158 30 0
159 -158 -728 0
-159 158 0
-159 728 0
160 -762 -157 0
-160 762 0
-160 157 0
161 -40 -13 0
-161 40 0
-161 13 0
162 -161 -3 0
-162 161 0
-162 3 0
163 -763 -160 0
-163 763 0
-163 160 0
164 -734 -23 0
-164 734 0
-164 23 0
165 -164 -33 0
-165 164 0
-165 33 0
166 -764 -163 0
-166 764 0
-166 163 0
167 -765 -695 0
-167 765 0
-167 695 0
168 -167 -766 0
-168 167 0
-168 766 0
169 -767 -166 0
-169 767 0
-169 166 0
170 -42 -768 0
-170 42 0
-170 768 0
171 -170 -769 0
-171 170 0
-171 769 0
172 -770 -169 0
-172 770 0
-172 169 0
173 -38 -737 0
-173 38 0
-173 737 0
174 -173 -771 0
-174 173 0
-174 771 0
175 -772 -172 0
-175 772 0
-175 172 0
176 -43 -18 0
-176 43 0
-176 18 0
177 -176 -773 0
-177 176 0
-177 773 0
178 -774 -175 0
-178 774 0
-178 175 0
179 -5 -2 0
-179 5 0
-179 2 0
180 -179 -700 0
-180 179 0
-180 700 0
181 -775 -178 0
-181 775 0
-181 178 0
182 -49 -47 0
-182 49 0
-182 47 0
183 -182 -50 0
-183 182 0
-183 50 0
184 -776 -181 0
-184 776 0
-184 181 0
185 -48 -18 0
-185 48 0
-185 18 0
186 -185 -20 0
-186 185 0
-186 20 0
187 -777 -184 0
-187 777 0
-187 184 0
188 -778 -34 0
-188 778 0
-188 34 0
189 -188 -3 0
-189 188 0
-189 3 0
190 -779 -187 0
-190 779 0
-190 187 0
191 -47 -780 0
-191 47 0
-191 780 0
192 -191 -50 0
-192 191 0
-192 50 0
193 -781 -190 0
-193 781 0
-193 190 0
194 -782 -1 0
-194 782 0
-194 1 0
195 -194 -20 0
-195 194 0
-195 20 0
196 -783 -193 0
-196 783 0
-196 193 0
197 -23 -17 0
-197 23 0
-197 17 0
198 -197 -717 0
-198 197 0
-198 717 0
199 -784 -196 0
-199 784 0
-199 196 0
200 -41 -21 0
-200 41 0
-200 21 0
201 -200 -768 0
-201 200 0
-201 768 0
202 -785 -199 0
-202 785 0
-202 199 0
203 -786 -714 0
-203 786 0
-203 714 0
204 -203 -773 0
-204 203 0
-204 773 0
205 -787 -202 0
-205 787 0
-205 202 0
206 -26 -714 0
-206 26 0
-206 714 0
207 -206 -7 0
-207 206 0
-207 7 0
208 -788 -205 0
-208 788 0
-208 205 0
209 -765 -39 0
-209 765 0
-209 39 0
210 -209 -789 0
-210 209 0
-210 789 0
211 -790 -208 0
-211 790 0
-211 208 0
212 -782 -707 0
-212 782 0
-212 707 0
213 -212 -778 0
-213 212 0
-213 778 0
214 -791 -211 0
-214 791 0
-214 211 0
215 -730 -1 0
-215 730 0
-215 1 0
216 -215 -11 0
-216 215 0
-216 11 0
217 -792 -214 0
-217 792 0
-217 214 0
218 -49 -18 0
-218 49 0
-218 18 0
219 -218 -19 0
-219 218 0
-219 19 0
220 -793 -217 0
-220 793 0
-220 217 0
221 -794 -18 0
-221 794 0
-221 18 0
222 -221 -34 0
-222 221 0
-222 34 0
223 -795 -220 0
-223 795 0
-223 220 0
224 -37 -712 0
-224 37 0
-224 712 0
225 -224 -11 0
-225 224 0
-225 11 0
226 -796 -223 0
-226 796 0
-226 223 0
227 -797 -41 0
-227 797 0
-227 41 0
228 -227 -700 0
-228 227 0
-228 700 0
229 -798 -226 0
-229 798 0
-229 226 0
230 -42 -717 0
-230 42 0
-230 717 0
231 -230 -32 0
-231 230 0
-231 32 0
232 -799 -229 0
-232 799 0
-232 229 0
233 -39 -16 0
-233 39 0
-233 16 0
234 -233 -7 0
-234 233 0
-234 7 0
235 -800 -232 0
-235 800 0
-235 232 0
236 -720 -1 0
-236 720 0
-236 1 0
237 -236 -773 0
-237 236 0
-237 773 0
238 -801 -235 0
-238 801 0
-238 235 0
239 -22 -2 0
-239 22 0
-239 2 0
240 -239 -47 0
-240 239 0
-240 47 0
241 -802 -238 0
-241 802 0
-241 238 0
242 -43 -803 0
-242 43 0
-242 803 0
243 -242 -728 0
-243 242 0
-243 728 0
244 -804 -241 0
-244 804 0
-244 241 0
245 -748 -2 0
-245 748 0
-245 2 0
246 -245 -697 0
-246 245 0
-246 697 0
247 -805 -244 0
-247 805 0
-247 244 0
248 -10 -1 0
-248 10 0
-248 1 0
249 -248 -13 0
-249 248 0
-249 13 0
250 -806 -247 0
-250 806 0
-250 247 0
251 -719 -707 0
-251 719 0
-251 707 0
252 -251 -8 0
-252 251 0
-252 8 0
253 -807 -250 0
-253 807 0
-253 250 0
254 -24 -11 0
-254 24 0
-254 11 0
255 -254 -46 0
-255 254 0
-255 46 0
256 -808 -253 0
-256 808 0
-256 253 0
257 -786 -4 0
-257 786 0
-257 4 0
258 -257 -14 0
-258 257 0
-258 14 0
259 -809 -256 0
-259 809 0
-259 256 0
260 -35 -710 0
-260 35 0
-260 710 0
261 -260 -803 0
-261 260 0
-261 803 0
262 -810 -259 0
-262 810 0
-262 259 0
263 -24 -23 0
-263 24 0
-263 23 0
264 -263 -8 0
-264 263 0
-264 8 0
265 -811 -262 0
-265 811 0
-265 262 0
266 -25 -17 0
-266 25 0
-266 17 0
267 -266 -733 0
-267 266 0
-267 733 0
268 -812 -265 0
-268 812 0
-268 265 0
269 -43 -24 0
-269 43 0
-269 24 0
270 -269 -697 0
-270 269 0
-270 697 0
271 -813 -268 0
-271 813 0
-271 268 0
272 -733 -794 0
-272 733 0
-272 794 0
273 -272 -728 0
-273 272 0
-273 728 0
274 -814 -271 0
-274 814 0
-274 271 0
275 -730 -701 0
-275 730 0
-275 701 0
276 -275 -46 0
-276 275 0
-276 46 0
277 -815 -274 0
-277 815 0
-277 274 0
278 -43 -782 0
-278 43 0
-278 782 0
279 -278 -712 0
-279 278 0
-279 712 0
280 -816 -277 0
-280 816 0
-280 277 0
281 -773 -31 0
-281 773 0
-281 31 0
282 -281 -759 0
-282 281 0
-282 759 0
283 -817 -280 0
-283 817 0
-283 280 0
284 -748 -22 0
-284 748 0
-284 22 0
285 -284 -42 0
-285 284 0
-285 42 0
286 -818 -283 0
-286 818 0
-286 283 0
287 -773 -35 0
-287 773 0
-287 35 0
288 -287 -41 0
-288 287 0
-288 41 0
289 -819 -286 0
-289 819 0
-289 286 0
290 -750 -4 0
-290 750 0
-290 4 0
291 -290 -697 0
-291 290 0
-291 697 0
292 -820 -289 0
-292 820 0
-292 289 0
293 -42 -16 0
-293 42 0
-293 16 0
294 -293 -3 0
-294 293 0
-294 3 0
295 -821 -292 0
-295 821 0
-295 292 0
296 -707 -1 0
-296 707 0
-296 1 0
297 -296 -27 0
-297 296 0
-297 27 0
298 -822 -295 0
-298 822 0
-298 295 0
299 -40 -6 0
-299 40 0
-299 6 0
300 -299 -823 0
-300 299 0
-300 823 0
301 -824 -298 0
-301 824 0
-301 298 0
302 -748 -825 0
-302 748 0
-302 825 0
303 -302 -778 0
-303 302 0
-303 778 0
304 -826 -301 0
-304 826 0
-304 301 0
305 -42 -714 0
-305 42 0
-305 714 0
306 -305 -41 0
-306 305 0
-306 41 0
307 -827 -304 0
-307 827 0
-307 304 0
308 -23 -720 0
-308 23 0
-308 720 0
309 -308 -35 0
-309 308 0
-309 35 0
310 -828 -307 0
-310 828 0
-310 307 0
311 -42 -38 0
-311 42 0
-311 38 0
312 -311 -695 0
-312 311 0
-312 695 0
313 -829 -310 0
-313 829 0
-313 310 0
314 -24 -706 0
-314 24 0
-314 706 0
315 -314 -700 0
-315 314 0
-315 700 0
316 -830 -313 0
-316 830 0
-316 313 0
317 -17 -13 0
-317 17 0
-317 13 0
318 -317 -727 0
-318 317 0
-318 727 0
319 -831 -316 0
-319 831 0
-319 316 0
320 -48 -797 0
-320 48 0
-320 797 0
321 -320 -707 0
-321 320 0
-321 707 0
322 -832 -319 0
-322 832 0
-322 319 0
323 -773 -24 0
-323 773 0
-323 24 0
324 -323 -727 0
-324 323 0
-324 727 0
325 -833 -322 0
-325 833 0
-325 322 0
326 -765 -797 0
-326 765 0
-326 797 0
327 -326 -834 0
-327 326 0
-327 834 0
328 -835 -325 0
-328 835 0
-328 325 0
329 -737 -794 0
-329 737 0
-329 794 0
330 -329 -34 0
-330 329 0
-330 34 0
331 -836 -328 0
-331 836 0
-331 328 0
332 -834 -712 0
-332 834 0
-332 712 0
333 -332 -26 0
-333 332 0
-333 26 0
334 -837 -331 0
-334 837 0
-334 331 0
335 -33 -22 0
-335 33 0
-335 22 0
336 -335 -768 0
-336 335 0
-336 768 0
337 -838 -334 0
-337 838 0
-337 334 0
338 -26 -750 0
-338 26 0
-338 750 0
339 -338 -766 0
-339 338 0
-339 766 0
340 -839 -337 0
-340 839 0
-340 337 0
341 -34 -768 0
-341 34 0
-341 768 0
342 -341 -759 0
-342 341 0
-342 759 0
343 -840 -340 0
-343 840 0
-343 340 0
344 -40 -30 0
-344 40 0
-344 30 0
345 -344 -759 0
-345 344 0
-345 759 0
346 -841 -343 0
-346 841 0
-346 343 0
347 -797 -803 0
-347 797 0
-347 803 0
348 -347 -700 0
-348 347 0
-348 700 0
349 -842 -346 0
-349 842 0
-349 346 0
350 -44 -706 0
-350 44 0
-350 706 0
351 -350 -789 0
-351 350 0
-351 789 0
352 -843 -349 0
-352 843 0
-352 349 0
353 -23 -19 0
-353 23 0
-353 19 0
354 -353 -769 0
-354 353 0
-354 769 0
355 -844 -352 0
-355 844 0
-355 352 0
356 -42 -4 0
-356 42 0
-356 4 0
357 -356 -46 0
-357 356 0
-357 46 0
358 -845 -355 0
-358 845 0
-358 355 0
359 -737 -15 0
-359 737 0
-359 15 0
360 -359 -695 0
-360 359 0
-360 695 0
361 -846 -358 0
-361 846 0
-361 358 0
362 -737 -13 0
-362 737 0
-362 13 0
363 -362 -702 0
-363 362 0
-363 702 0
364 -847 -361 0
-364 847 0
-364 361 0
365 -30 -18 0
-365 30 0
-365 18 0
366 -365 -26 0
-366 365 0
-366 26 0
367 -848 -364 0
-367 848 0
-367 364 0
368 -40 -849 0
-368 40 0
-368 849 0
369 -368 -46 0
-369 368 0
-369 46 0
370 -850 -367 0
-370 850 0
-370 367 0
371 -736 -23 0
-371 736 0
-371 23 0
372 -371 -695 0
-372 371 0
-372 695 0
373 -851 -370 0
-373 851 0
-373 370 0
374 -717 -712 0
-374 717 0
-374 712 0
375 -374 -778 0
-375 374 0
-375 778 0
376 -852 -373 0
-376 852 0
-376 373 0
377 -768 -739 0
-377 768 0
-377 739 0
378 -377 -697 0
-378 377 0
-378 697 0
379 -853 -376 0
-379 853 0
-379 376 0
380 -825 -25 0
-380 825 0
-380 25 0
381 -380 -759 0
-381 380 0
-381 759 0
382 -854 -379 0
-382 854 0
-382 379 0
383 -26 -21 0
-383 26 0
-383 21 0
384 -383 -36 0
-384 383 0
-384 36 0
385 -855 -382 0
-385 855 0
-385 382 0
386 -38 -2 0
-386 38 0
-386 2 0
387 -386 -34 0
-387 386 0
-387 34 0
388 -856 -385 0
-388 856 0
-388 385 0
389 -765 -43 0
-389 765 0
-389 43 0
390 -389 -4 0
-390 389 0
-390 4 0
391 -857 -388 0
-391 857 0
-391 388 0
392 -742 -734 0
-392 742 0
-392 734 0
393 -392 -41 0
-393 392 0
-393 41 0
394 -858 -391 0
-394 858 0
-394 391 0
395 -748 -42 0
-395 748 0
-395 42 0
396 -395 -24 0
-396 395 0
-396 24 0
397 -859 -394 0
-397 859 0
-397 394 0
398 -794 -11 0
-398 794 0
-398 11 0
399 -398 -8 0
-399 398 0
-399 8 0
400 -860 -397 0
-400 860 0
-400 397 0
401 -21 -727 0
-401 21 0
-401 727 0
402 -401 -50 0
-402 401 0
-402 50 0
403 -861 -400 0
-403 861 0
-403 400 0
404 -18 -13 0
-404 18 0
-404 13 0
405 -404 -737 0
-405 404 0
-405 737 0
406 -862 -403 0
-406 862 0
-406 403 0
407 -727 -710 0
-407 727 0
-407 710 0
408 -407 -11 0
-408 407 0
-408 11 0
409 -863 -406 0
-409 863 0
-409 406 0
410 -26 -24 0
-410 26 0
-410 24 0
411 -410 -727 0
-411 410 0
-411 727 0
412 -864 -409 0
-412 864 0
-412 409 0
413 -737 -733 0
-413 737 0
-413 733 0
414 -413 -755 0
-414 413 0
-414 755 0
415 -865 -412 0
-415 865 0
-415 412 0
416 -32 -18 0
-416 32 0
-416 18 0
417 -416 -701 0
-417 416 0
-417 701 0
418 -866 -415 0
-418 866 0
-418 415 0
419 -362 -33 0
-419 362 0
-419 33 0
420 -867 -418 0
-420 867 0
-420 418 0
421 -707 -16 0
-421 707 0
-421 16 0
422 -421 -778 0
-422 421 0
-422 778 0
423 -868 -420 0
-423 868 0
-423 420 0
424 -782 -700 0
-424 782 0
-424 700 0
425 -424 -755 0
-425 424 0
-425 755 0
426 -869 -423 0
-426 869 0
-426 423 0
427 -31 -23 0
-427 31 0
-427 23 0
428 -427 -11 0
-428 427 0
-428 11 0
429 -870 -426 0
-429 870 0
-429 426 0
430 -41 -739 0
-430 41 0
-430 739 0
431 -430 -9 0
-431 430 0
-431 9 0
432 -871 -429 0
-432 871 0
-432 429 0
433 -43 -712 0
-433 43 0
-433 712 0
434 -433 -872 0
-434 433 0
-434 872 0
435 -873 -432 0
-435 873 0
-435 432 0
436 -28 -26 0
-436 28 0
-436 26 0
437 -436 -778 0
-437 436 0
-437 778 0
438 -874 -435 0
-438 874 0
-438 435 0
439 -305 -872 0
-439 305 0
-439 872 0
440 -875 -438 0
-440 875 0
-440 438 0
441 -23 -8 0
-441 23 0
-441 8 0
442 -441 -3 0
-442 441 0
-442 3 0
443 -876 -440 0
-443 876 0
-443 440 0
444 -794 -786 0
-444 794 0
-444 786 0
445 -444 -9 0
-445 444 0
-445 9 0
446 -877 -443 0
-446 877 0
-446 443 0
447 -719 -753 0
-447 719 0
-447 753 0
448 -447 -789 0
-448 447 0
-448 789 0
449 -878 -446 0
-449 878 0
-449 446 0
450 -18 -745 0
-450 18 0
-450 745 0
451 -450 -8 0
-451 450 0
-451 8 0
452 -879 -449 0
-452 879 0
-452 449 0
453 -765 -17 0
-453 765 0
-453 17 0
454 -453 -695 0
-454 453 0
-454 695 0
455 -880 -452 0
-455 880 0
-455 452 0
456 -742 -1 0
-456 742 0
-456 1 0
457 -456 -733 0
-457 456 0
-457 733 0
458 -881 -455 0
-458 881 0
-458 455 0
459 -753 -730 0
-459 753 0
-459 730 0
460 -459 -719 0
-460 459 0
-460 719 0
461 -882 -458 0
-461 882 0
-461 458 0
462 -31 -714 0
-462 31 0
-462 714 0
463 -462 -834 0
-463 462 0
-463 834 0
464 -883 -461 0
-464 883 0
-464 461 0
465 -733 -34 0
-465 733 0
-465 34 0
466 -465 -7 0
-466 465 0
-466 7 0
467 -884 -464 0
-467 884 0
-467 464 0
468 -25 -5 0
-468 25 0
-468 5 0
469 -468 -766 0
-469 468 0
-469 766 0
470 -885 -467 0
-470 885 0
-470 467 0
471 -39 -31 0
-471 39 0
-471 31 0
472 -471 -9 0
-472 471 0
-472 9 0
473 -886 -470 0
-473 886 0
-473 470 0
474 -38 -29 0
-474 38 0
-474 29 0
475 -474 -759 0
-475 474 0
-475 759 0
476 -887 -473 0
-476 887 0
-476 473 0
477 -43 -21 0
-477 43 0
-477 21 0
478 -477 -727 0
-478 477 0
-478 727 0
479 -888 -476 0
-479 888 0
-479 476 0
480 -872 -753 0
-480 872 0
-480 753 0
481 -480 -27 0
-481 480 0
-481 27 0
482 -889 -479 0
-482 889 0
-482 479 0
483 -31 -21 0
-483 31 0
-483 21 0
484 -483 -803 0
-484 483 0
-484 803 0
485 -890 -482 0
-485 890 0
-485 482 0
486 -215 -41 0
-486 215 0
-486 41 0
487 -891 -485 0
-487 891 0
-487 485 0
488 -771 -701 0
-488 771 0
-488 701 0
489 -488 -702 0
-489 488 0
-489 702 0
490 -892 -487 0
-490 892 0
-490 487 0
491 -41 -717 0
-491 41 0
-491 717 0
492 -491 -755 0
-492 491 0
-492 755 0
493 -893 -490 0
-493 893 0
-493 490 0
494 -28 -5 0
-494 28 0
-494 5 0
495 -494 -11 0
-495 494 0
-495 11 0
496 -894 -493 0
-496 894 0
-496 493 0
497 -782 -710 0
-497 782 0
-497 710 0
498 -497 -42 0
-498 497 0
-498 42 0
499 -895 -496 0
-499 895 0
-499 496 0
500 -40 -14 0
-500 40 0
-500 14 0
501 -500 -700 0
-501 500 0
-501 700 0
502 -896 -499 0
-502 896 0
-502 499 0
503 -25 -707 0
-503 25 0
-503 707 0
504 -503 -8 0
-504 503 0
-504 8 0
505 -897 -502 0
-505 897 0
-505 502 0
506 -761 -730 0
-506 761 0
-506 730 0
507 -506 -768 0
-507 506 0
-507 768 0
508 -898 -505 0
-508 898 0
-508 505 0
509 -39 -33 0
-509 39 0
-509 33 0
510 -509 -11 0
-510 509 0
-510 11 0
511 -899 -508 0
-511 899 0
-511 508 0
512 -45 -41 0
-512 45 0
-512 41 0
513 -512 -728 0
-513 512 0
-513 728 0
514 -900 -511 0
-514 900 0
-514 511 0
515 -30 -720 0
-515 30 0
-515 720 0
516 -515 -768 0
-516 515 0
-516 768 0
517 -901 -514 0
-517 901 0
-517 514 0
518 -41 -707 0
-518 41 0
-518 707 0
519 -518 -34 0
-519 518 0
-519 34 0
520 -902 -517 0
-520 902 0
-520 517 0
521 -706 -710 0
-521 706 0
-521 710 0
522 -521 -768 0
-522 521 0
-522 768 0
523 -903 -520 0
-523 903 0
-523 520 0
524 -48 -25 0
-524 48 0
-524 25 0
525 -524 -4 0
-525 524 0
-525 4 0
526 -904 -523 0
-526 904 0
-526 523 0
527 -834 -706 0
-527 834 0
-527 706 0
528 -527 -34 0
-528 527 0
-528 34 0
529 -905 -526 0
-529 905 0
-529 526 0
530 -24 -5 0
-530 24 0
-530 5 0
531 -530 -8 0
-531 530 0
-531 8 0
532 -906 -529 0
-532 906 0
-532 529 0
533 -29 -710 0
-533 29 0
-533 710 0
534 -533 -872 0
-534 533 0
-534 872 0
535 -907 -532 0
-535 907 0
-535 532 0
536 -765 -22 0
-536 765 0
-536 22 0
537 -536 -706 0
-537 536 0
-537 706 0
538 -908 -535 0
-538 908 0
-538 535 0
539 -48 -695 0
-539 48 0
-539 695 0
540 -539 -701 0
-540 539 0
-540 701 0
541 -909 -538 0
-541 909 0
-541 538 0
542 -4 -2 0
-542 4 0
-542 2 0
543 -542 -46 0
-543 542 0
-543 46 0
544 -910 -541 0
-544 910 0
-544 541 0
545 -25 -706 0
-545 25 0
-545 706 0
546 -545 -849 0
-546 545 0
-546 849 0
547 -911 -544 0
-547 911 0
-547 544 0
548 -719 -766 0
-548 719 0
-548 766 0
549 -548 -755 0
-549 548 0
-549 755 0
550 -912 -547 0
-550 912 0
-550 547 0
551 -37 -17 0
-551 37 0
-551 17 0
552 -551 -19 0
-552 551 0
-552 19 0
553 -913 -550 0
-553 913 0
-553 550 0
554 -834 -16 0
-554 834 0
-554 16 0
555 -554 -50 0
-555 554 0
-555 50 0
556 -914 -553 0
-556 914 0
-556 553 0
557 -23 -13 0
-557 23 0
-557 13 0
558 -557 -778 0
-558 557 0
-558 778 0
559 -915 -556 0
-559 915 0
-559 556 0
560 -49 -39 0
-560 49 0
-560 39 0
561 -560 -14 0
-561 560 0
-561 14 0
562 -916 -559 0
-562 916 0
-562 559 0
563 -872 -710 0
-563 872 0
-563 710 0
564 -563 -36 0
-564 563 0
-564 36 0
565 -917 -562 0
-565 917 0
-565 562 0
566 -761 -872 0
-566 761 0
-566 872 0
567 -566 -9 0
-567 566 0
-567 9 0
568 -918 -565 0
-568 918 0
-568 565 0
569 -753 -17 0
-569 753 0
-569 17 0
570 -569 -6 0
-570 569 0
-570 6 0
571 -919 -568 0
-571 919 0
-571 568 0
572 -797 -30 0
-572 797 0
-572 30 0
573 -572 -27 0
-573 572 0
-573 27 0
574 -920 -571 0
-574 920 0
-574 571 0
575 -39 -1 0
-575 39 0
-575 1 0
576 -575 -712 0
-576 575 0
-576 712 0
577 -921 -574 0
-577 921 0
-577 574 0
578 -25 -696 0
-578 25 0
-578 696 0
579 -578 -872 0
-579 578 0
-579 872 0
580 -922 -577 0
-580 922 0
-580 577 0
581 -37 -695 0
-581 37 0
-581 695 0
582 -581 -789 0
-582 581 0
-582 789 0
583 -923 -580 0
-583 923 0
-583 580 0
584 -24 -2 0
-584 24 0
-584 2 0
585 -584 -771 0
-585 584 0
-585 771 0
586 -924 -583 0
-586 924 0
-586 583 0
587 -48 -782 0
-587 48 0
-587 782 0
588 -587 -761 0
-588 587 0
-588 761 0
589 -925 -586 0
-589 925 0
-589 586 0
590 -33 -23 0
-590 33 0
-590 23 0
591 -590 -3 0
-591 590 0
-591 3 0
592 -926 -589 0
-592 926 0
-592 589 0
593 -17 -745 0
-593 17 0
-593 745 0
594 -593 -40 0
-594 593 0
-594 40 0
595 -927 -592 0
-595 927 0
-595 592 0
596 -43 -11 0
-596 43 0
-596 11 0
597 -596 -12 0
-597 596 0
-597 12 0
598 -928 -595 0
-598 928 0
-598 595 0
599 -724 -24 0
-599 724 0
-599 24 0
600 -599 -36 0
-600 599 0
-600 36 0
601 -929 -598 0
-601 929 0
-601 598 0
602 -31 -25 0
-602 31 0
-602 25 0
603 -602 -50 0
-603 602 0
-603 50 0
604 -930 -601 0
-604 930 0
-604 601 0
605 -34 -719 0
-605 34 0
-605 719 0
606 -605 -7 0
-606 605 0
-606 7 0
607 -931 -604 0
-607 931 0
-607 604 0
608 -43 -22 0
-608 43 0
-608 22 0
609 -608 -696 0
-609 608 0
-609 696 0
610 -932 -607 0
-610 932 0
-610 607 0
611 -720 -9 0
-611 720 0
-611 9 0
612 -611 -50 0
-612 611 0
-612 50 0
613 -933 -610 0
-613 933 0
-613 610 0
614 -724 -4 0
-614 724 0
-614 4 0
615 -614 -50 0
-615 614 0
-615 50 0
616 -934 -613 0
-616 934 0
-616 613 0
617 -45 -739 0
-617 45 0
-617 739 0
618 -617 -9 0
-618 617 0
-618 9 0
619 -935 -616 0
-619 935 0
-619 616 0
620 -766 -7 0
-620 766 0
-620 7 0
621 -620 -9 0
-621 620 0
-621 9 0
622 -936 -619 0
-622 936 0
-622 619 0
623 -39 -719 0
-623 39 0
-623 719 0
624 -623 -728 0
-624 623 0
-624 728 0
625 -937 -622 0
-625 937 0
-625 622 0
626 -392 -12 0
-626 392 0
-626 12 0
627 -938 -625 0
-627 938 0
-627 625 0
628 -30 -734 0
-628 30 0
-628 734 0
629 -628 -49 0
-629 628 0
-629 49 0
630 -939 -627 0
-630 939 0
-630 627 0
631 -39 -780 0
-631 39 0
-631 780 0
632 -631 -4 0
-632 631 0
-632 4 0
633 -940 -630 0
-633 940 0
-633 630 0
634 -872 -717 0
-634 872 0
-634 717 0
635 -634 -46 0
-635 634 0
-635 46 0
636 -941 -633 0
-636 941 0
-636 633 0
637 -497 -759 0
-637 497 0
-637 759 0
638 -942 -636 0
-638 942 0
-638 636 0
639 -2 -745 0
-639 2 0
-639 745 0
640 -639 -47 0
-640 639 0
-640 47 0
641 -943 -638 0
-641 943 0
-641 638 0
642 -26 -16 0
-642 26 0
-642 16 0
643 -642 -727 0
-643 642 0
-643 727 0
644 -944 -641 0
-644 944 0
-644 641 0
645 -332 -789 0
-645 332 0
-645 789 0
646 -945 -644 0
-646 945 0
-646 644 0
647 -39 -753 0
-647 39 0
-647 753 0
648 -647 -697 0
-648 647 0
-648 697 0
649 -946 -646 0
-649 946 0
-649 646 0
650 -19 -780 0
-650 19 0
-650 780 0
651 -650 -11 0
-651 650 0
-651 11 0
652 -947 -649 0
-652 947 0
-652 649 0
653 -21 -15 0
-653 21 0
-653 15 0
654 -653 -707 0
-654 653 0
-654 707 0
655 -948 -652 0
-655 948 0
-655 652 0
656 -49 -825 0
-656 49 0
-656 825 0
657 -656 -733 0
-657 656 0
-657 733 0
658 -949 -655 0
-658 949 0
-658 655 0
659 -736 -739 0
-659 736 0
-659 739 0
660 -659 -5 0
-660 659 0
-660 5 0
661 -950 -658 0
-661 950 0
-661 658 0
662 -35 -29 0
-662 35 0
-662 29 0
663 -662 -769 0
-663 662 0
-663 769 0
664 -951 -661 0
-664 951 0
-664 661 0
665 -739 -1 0
-665 739 0
-665 1 0
666 -665 -44 0
-666 665 0
-666 44 0
667 -952 -664 0
-667 952 0
-667 664 0
668 -771 -766 0
-668 771 0
-668 766 0
669 -668 -778 0
-669 668 0
-669 778 0
670 -953 -667 0
-670 953 0
-670 667 0
671 -45 -35 0
-671 45 0
-671 35 0
672 -671 -27 0
-672 671 0
-672 27 0
673 -954 -670 0
-673 954 0
-673 670 0
674 -834 -18 0
-674 834 0
-674 18 0
675 -674 -5 0
-675 674 0
-675 5 0
676 -955 -673 0
-676 955 0
-676 673 0
677 -733 -753 0
-677 733 0
-677 753 0
678 -677 -724 0
-678 677 0
-678 724 0
679 -956 -676 0
-679 956 0
-679 676 0
680 -748 -769 0
-680 748 0
-680 769 0
681 -680 -789 0
-681 680 0
-681 789 0
682 -957 -679 0
-682 957 0
-682 679 0
683 -730 -714 0
-683 730 0
-683 714 0
684 -683 -773 0
-684 683 0
-684 773 0
685 -958 -682 0
-685 958 0
-685 682 0
686 -46 -43 0
-686 46 0
-686 43 0
687 -686 -12 0
-687 686 0
-687 12 0
688 -959 -685 0
-688 959 0
-688 685 0
689 -48 -28 0
-689 48 0
-689 28 0
690 -689 -825 0
-690 689 0
-690 825 0
691 -960 -688 0
-691 960 0
-691 688 0
692 -739 -714 0
-692 739 0
-692 714 0
693 -692 -4 0
-693 692 0
-693 4 0
694 -961 -691 0
-694 961 0
-694 691 0
-695 -5 0
695 5 0
-696 -4 0
696 4 0
-697 -6 0
697 6 0
-698 -54 0
698 54 0
-699 -52 0
699 52 0
-700 -8 0
700 8 0
-701 -7 0
701 7 0
-702 -9 0
702 9 0
-703 -57 0
703 57 0
-704 -60 0
704 60 0
-705 -63 0
705 63 0
-706 -16 0
706 16 0
-707 -17 0
707 17 0
-708 -66 0
708 66 0
-709 -69 0
709 69 0
-710 -15 0
710 15 0
-711 -72 0
711 72 0
-712 -13 0
712 13 0
-713 -75 0
713 75 0
-714 -10 0
714 10 0
-715 -78 0
715 78 0
-716 -81 0
716 81 0
-717 -26 0
717 26 0
-718 -84 0
718 84 0
-719 -28 0
719 28 0
-720 -19 0
720 19 0
-721 -87 0
721 87 0
-722 -90 0
722 90 0
-723 -93 0
723 93 0
-724 -34 0
724 34 0
-725 -96 0
725 96 0
-726 -99 0
726 99 0
-727 -20 0
727 20 0
-728 -3 0
728 3 0
-729 -102 0
729 102 0
-730 -21 0
730 21 0
-731 -105 0
731 105 0
-732 -108 0
732 108 0
-733 -35 0
733 35 0
-734 -25 0
734 25 0
-735 -111 0
735 111 0
-736 -38 0
736 38 0
-737 -37 0
737 37 0
-738 -114 0
738 114 0
-739 -30 0
739 30 0
-740 -117 0
740 117 0
-741 -120 0
741 120 0
-742 -39 0
742 39 0
-743 -123 0
743 123 0
-744 -126 0
744 126 0
-745 -1 0
745 1 0
-746 -129 0
746 129 0
-747 -132 0
747 132 0
-748 -43 0
748 43 0
-749 -135 0
749 135 0
-750 -24 0
750 24 0
-751 -138 0
751 138 0
-752 -141 0
752 141 0
-753 -23 0
753 23 0
-754 -144 0
754 144 0
-755 -46 0
755 46 0
-756 -147 0
756 147 0
-757 -150 0
757 150 0
-758 -153 0
758 153 0
-759 -11 0
759 11 0
-760 -156 0
760 156 0
-761 -47 0
761 47 0
-762 -159 0
762 159 0
-763 -162 0
763 162 0
-764 -165 0
764 165 0
-765 -48 0
765 48 0
-766 -14 0
766 14 0
-767 -168 0
767 168 0
-768 -32 0
768 32 0
-769 -27 0
769 27 0
-770 -171 0
770 171 0
-771 -45 0
771 45 0
-772 -174 0
772 174 0
-773 -40 0
773 40 0
-774 -177 0
774 177 0
-775 -180 0
775 180 0
-776 -183 0
776 183 0
-777 -186 0
777 186 0
-778 -36 0
778 36 0
-779 -189 0
779 189 0
-780 -2 0
780 2 0
-781 -192 0
781 192 0
-782 -22 0
782 22 0
-783 -195 0
783 195 0
-784 -198 0
784 198 0
-785 -201 0
785 201 0
-786 -29 0
786 29 0
-787 -204 0
787 204 0
-788 -207 0
788 207 0
-789 -50 0
789 50 0
-790 -210 0
790 210 0
-791 -213 0
791 213 0
-792 -216 0
792 216 0
-793 -219 0
793 219 0
-794 -33 0
794 33 0
-795 -222 0
795 222 0
-796 -225 0
796 225 0
-797 -42 0
797 42 0
-798 -228 0
798 228 0
-799 -231 0
799 231 0
-800 -234 0
800 234 0
-801 -237 0
801 237 0
-802 -240 0
802 240 0
-803 -41 0
803 41 0
-804 -243 0
804 243 0
-805 -246 0
805 246 0
-806 -249 0
806 249 0
-807 -252 0
807 252 0
-808 -255 0
808 255 0
-809 -258 0
809 258 0
-810 -261 0
810 261 0
-811 -264 0
811 264 0
-812 -267 0
812 267 0
-813 -270 0
813 270 0
-814 -273 0
814 273 0
-815 -276 0
815 276 0
-816 -279 0
816 279 0
-817 -282 0
817 282 0
-818 -285 0
818 285 0
-819 -288 0
819 288 0
-820 -291 0
820 291 0
-821 -294 0
821 294 0
-822 -297 0
822 297 0
-823 -12 0
823 12 0
-824 -300 0
824 300 0
-825 -31 0
825 31 0
-826 -303 0
826 303 0
-827 -306 0
827 306 0
-828 -309 0
828 309 0
-829 -312 0
829 312 0
-830 -315 0
830 315 0
-831 -318 0
831 318 0
-832 -321 0
832 321 0
-833 -324 0
833 324 0
-834 -49 0
834 49 0
-835 -327 0
835 327 0
-836 -330 0
836 330 0
-837 -333 0
837 333 0
-838 -336 0
838 336 0
-839 -339 0
839 339 0
-840 -342 0
840 342 0
-841 -345 0
841 345 0
-842 -348 0
842 348 0
-843 -351 0
843 351 0
-844 -354 0
844 354 0
-845 -357 0
845 357 0
-846 -360 0
846 360 0
-847 -363 0
847 363 0
-848 -366 0
848 366 0
-849 -18 0
849 18 0
-850 -369 0
850 369 0
-851 -372 0
851 372 0
-852 -375 0
852 375 0
-853 -378 0
853 378 0
-854 -381 0
854 381 0
-855 -384 0
855 384 0
-856 -387 0
856 387 0
-857 -390 0
857 390 0
-858 -393 0
858 393 0
-859 -396 0
859 396 0
-860 -399 0
860 399 0
-861 -402 0
861 402 0
-862 -405 0
862 405 0
-863 -408 0
863 408 0
-864 -411 0
864 411 0
-865 -414 0
865 414 0
-866 -417 0
866 417 0
-867 -419 0
867 419 0
-868 -422 0
868 422 0
-869 -425 0
869 425 0
-870 -428 0
870 428 0
-871 -431 0
871 431 0
-872 -44 0
872 44 0
-873 -434 0
873 434 0
-874 -437 0
874 437 0
-875 -439 0
875 439 0
-876 -442 0
876 442 0
-877 -445 0
877 445 0
-878 -448 0
878 448 0
-879 -451 0
879 451 0
-880 -454 0
880 454 0
-881 -457 0
881 457 0
-882 -460 0
882 460 0
-883 -463 0
883 463 0
-884 -466 0
884 466 0
-885 -469 0
885 469 0
-886 -472 0
886 472 0
-887 -475 0
887 475 0
-888 -478 0
888 478 0
-889 -481 0
889 481 0
-890 -484 0
890 484 0
-891 -486 0
891 486 0
-892 -489 0
892 489 0
-893 -492 0
893 492 0
-894 -495 0
894 495 0
-895 -498 0
895 498 0
-896 -501 0
896 501 0
-897 -504 0
897 504 0
-898 -507 0
898 507 0
-899 -510 0
899 510 0
-900 -513 0
900 513 0
-901 -516 0
901 516 0
-902 -519 0
902 519 0
-903 -522 0
903 522 0
-904 -525 0
904 525 0
-905 -528 0
905 528 0
-906 -531 0
906 531 0
-907 -534 0
907 534 0
-908 -537 0
908 537 0
-909 -540 0
909 540 0
-910 -543 0
910 543 0
-911 -546 0
911 546 0
-912 -549 0
912 549 0
-913 -552 0
913 552 0
-914 -555 0
914 555 0
-915 -558 0
915 558 0
-916 -561 0
916 561 0
-917 -564 0
917 564 0
-918 -567 0
918 567 0
-919 -570 0
919 570 0
-920 -573 0
920 573 0
-921 -576 0
921 576 0
-922 -579 0
922 579 0
-923 -582 0
923 582 0
-924 -585 0
924 585 0
-925 -588 0
925 588 0
-926 -591 0
926 591 0
-927 -594 0
927 594 0
-928 -597 0
928 597 0
-929 -600 0
929 600 0
-930 -603 0
930 603 0
-931 -606 0
931 606 0
-932 -609 0
932 609 0
-933 -612 0
933 612 0
-934 -615 0
934 615 0
-935 -618 0
935 618 0
-936 -621 0
936 621 0
-937 -624 0
937 624 0
-938 -626 0
938 626 0
-939 -629 0
939 629 0
-940 -632 0
940 632 0
-941 -635 0
941 635 0
-942 -637 0
942 637 0
-943 -640 0
943 640 0
-944 -643 0
944 643 0
-945 -645 0
945 645 0
-946 -648 0
946 648 0
-947 -651 0
947 651 0
-948 -654 0
948 654 0
-949 -657 0
949 657 0
-950 -660 0
950 660 0
-951 -663 0
951 663 0
-952 -666 0
952 666 0
-953 -669 0
953 669 0
-954 -672 0
954 672 0
-955 -675 0
955 675 0
-956 -678 0
956 678 0
-957 -681 0
957 681 0
-958 -684 0
958 684 0
-959 -687 0
959 687 0
-960 -690 0
960 690 0
-961 -693 0
961 693 0
694 0
